
Gurobi 9.0.1 (linux64) logging started Thu Apr 30 05:57:44 2020

Gurobi Optimizer version 9.0.1 build v9.0.1rc0 (linux64)
Optimize a model with 860 rows, 990 columns and 6912 nonzeros
Model fingerprint: 0x5ae78c7c
Variable types: 0 continuous, 990 integer (980 binary)
Coefficient statistics:
  Matrix range     [1e+00, 5e+00]
  Objective range  [7e+00, 1e+02]
  Bounds range     [1e+00, 1e+00]
  RHS range        [1e+00, 1e+00]

User MIP start produced solution with objective 601 (0.00s)
Loaded user MIP start with objective 601

Presolve removed 182 rows and 348 columns
Presolve time: 0.06s
Presolved: 678 rows, 642 columns, 4950 nonzeros
Variable types: 0 continuous, 642 integer (634 binary)

Root relaxation: objective 4.479474e+02, 548 iterations, 0.03 seconds

    Nodes    |    Current Node    |     Objective Bounds      |     Work
 Expl Unexpl |  Obj  Depth IntInf | Incumbent    BestBd   Gap | It/Node Time

     0     0  447.94738    0  279  601.00000  447.94738  25.5%     -    0s
     0     0  472.62912    0  283  601.00000  472.62912  21.4%     -    0s
     0     0  473.01816    0  287  601.00000  473.01816  21.3%     -    0s
     0     0  473.03224    0  287  601.00000  473.03224  21.3%     -    0s
     0     0  473.03396    0  287  601.00000  473.03396  21.3%     -    0s
     0     0  478.47452    0  306  601.00000  478.47452  20.4%     -    0s
     0     0  478.77835    0  302  601.00000  478.77835  20.3%     -    0s
     0     0  478.78634    0  306  601.00000  478.78634  20.3%     -    0s
     0     0  488.57614    0  309  601.00000  488.57614  18.7%     -    0s
     0     0  490.43474    0  307  601.00000  490.43474  18.4%     -    0s
     0     0  490.58127    0  313  601.00000  490.58127  18.4%     -    0s
     0     0  490.59176    0  311  601.00000  490.59176  18.4%     -    0s
     0     0  494.95765    0  309  601.00000  494.95765  17.6%     -    0s
     0     0  496.33916    0  308  601.00000  496.33916  17.4%     -    0s
     0     0  496.55187    0  306  601.00000  496.55187  17.4%     -    1s
     0     0  496.74616    0  312  601.00000  496.74616  17.3%     -    1s
     0     0  496.84031    0  314  601.00000  496.84031  17.3%     -    1s
     0     0  496.85232    0  317  601.00000  496.85232  17.3%     -    1s
     0     0  498.31959    0  302  601.00000  498.31959  17.1%     -    1s
     0     0  498.38513    0  309  601.00000  498.38513  17.1%     -    1s
     0     0  498.39549    0  304  601.00000  498.39549  17.1%     -    1s
     0     0  499.30150    0  315  601.00000  499.30150  16.9%     -    1s
     0     0  499.33738    0  313  601.00000  499.33738  16.9%     -    1s
     0     0  499.62778    0  314  601.00000  499.62778  16.9%     -    1s
     0     0  499.62778    0  314  601.00000  499.62778  16.9%     -    1s
     0     0  499.71604    0  296  601.00000  499.71604  16.9%     -    1s
     0     0  499.71604    0  279  601.00000  499.71604  16.9%     -    1s
     0     0  499.71604    0  303  601.00000  499.71604  16.9%     -    1s
     0     0  499.71604    0  286  601.00000  499.71604  16.9%     -    1s
     0     0  499.71604    0  286  601.00000  499.71604  16.9%     -    1s
     0     0  499.71604    0  281  601.00000  499.71604  16.9%     -    1s
     0     0  499.71604    0  305  601.00000  499.71604  16.9%     -    1s
     0     0  499.71604    0  307  601.00000  499.71604  16.9%     -    1s
     0     0  499.71604    0  307  601.00000  499.71604  16.9%     -    1s
     0     0  501.06572    0  321  601.00000  501.06572  16.6%     -    2s
     0     0  501.63313    0  324  601.00000  501.63313  16.5%     -    2s
     0     0  502.67428    0  320  601.00000  502.67428  16.4%     -    2s
     0     0  502.79412    0  323  601.00000  502.79412  16.3%     -    2s
     0     0  502.85323    0  323  601.00000  502.85323  16.3%     -    2s
     0     0  502.87479    0  327  601.00000  502.87479  16.3%     -    2s
     0     0  504.03253    0  323  601.00000  504.03253  16.1%     -    2s
     0     0  504.81727    0  317  601.00000  504.81727  16.0%     -    2s
     0     0  505.07243    0  322  601.00000  505.07243  16.0%     -    2s
     0     0  505.36846    0  327  601.00000  505.36846  15.9%     -    2s
     0     0  505.50852    0  328  601.00000  505.50852  15.9%     -    2s
     0     0  505.52677    0  326  601.00000  505.52677  15.9%     -    2s
     0     0  505.54928    0  328  601.00000  505.54928  15.9%     -    2s
     0     0  505.55337    0  328  601.00000  505.55337  15.9%     -    2s
     0     0  505.82009    0  328  601.00000  505.82009  15.8%     -    2s
     0     0  505.82009    0  328  601.00000  505.82009  15.8%     -    2s
     0     2  505.87010    0  328  601.00000  505.87010  15.8%     -    2s
    96    66  531.81986    7  129  601.00000  514.50248  14.4%   174    5s
H  163   106                     594.0000000  519.79707  12.5%   171    5s
H  274    94                     573.0000000  527.20771  7.99%   148    6s
H  301    91                     568.0000000  527.20771  7.18%   137    7s
   632   136  566.55423   10  159  568.00000  543.19922  4.37%   114   10s
  1124   113  565.12652   13   76  568.00000  554.34492  2.40%   100   15s

Cutting planes:
  Cover: 3
  MIR: 22
  Inf proof: 1
  Zero half: 39
  RLT: 214

Explored 1422 nodes (133090 simplex iterations) in 16.22 seconds
Thread count was 1 (of 40 available processors)

Solution count 4: 568 573 594 601 

Optimal solution found (tolerance 1.00e-04)
Best objective 5.680000000000e+02, best bound 5.680000000000e+02, gap 0.0000%

User-callback calls 6250, time in user-callback 0.00 sec
